#************************************************************************************
#*                   Generated by cif2cell 2.0.0 2021-08-13 14:29                   *
#*  T. Bjorkman, Comp. Phys. Commun. 182, 1183-1186 (2011). Please cite generously. *
#*                                                                                  *
#*                              Data obtained from COD                              *
#*                                    None   ()                                     *
#*             Failed to get author information, No journal information             *
#************************************************************************************

%BLOCK LATTICE_CART
ang    # angstrom units
   3.327070000000000   0.000000000000000   0.000000000000000
  -1.663534999999999   2.881327140169093   0.000000000000000
   0.000000000000001   0.000000000000002  15.069000000000001
%ENDBLOCK LATTICE_CART

%BLOCK POSITIONS_FRAC
W    0.666666666666667   0.333333333333333   0.500888000000000 
Se   0.333333333333333   0.666666666666667   0.612457000000000 
Se   0.333333333333333   0.666666666666667   0.389319000000000 
%ENDBLOCK POSITIONS_FRAC

# Commented out pseudopotential block for easy editing
#%BLOCK SPECIES_POT
# W   W_00.usp
# Se  Se_00.usp
#%ENDBLOCK SPECIES_POT

%BLOCK SYMMETRY_OPS
# Symm. op. 1
  1.000000000000000   0.000000000000000   0.000000000000000 
 -0.000000000000000   1.000000000000000   0.000000000000000 
  0.000000000000000   0.000000000000000   1.000000000000000 
  0.000000000000000   0.000000000000000   0.000000000000000 
%ENDBLOCK SYMMETRY_OPS
