&CONTROL
  calculation = 'scf',
  outdir = '.',
  pseudo_dir = '.'
/
&SYSTEM
  ibrav = 0,
  nat   = 504,
  ntyp  = 2,
! c2x default
  ecutwfc = 10
/
&ELECTRONS
/

CELL_PARAMETERS angstrom
 71.0000000   0.0000000   0.0000000
  0.0000000  71.0000000   0.0000000
  0.0000000   0.0000000  15.2465501

ATOMIC_SPECIES
  W    1.0   W.UPF
  Se   1.0   Se.UPF

ATOMIC_POSITIONS angstrom
  W   51.582714838  40.460860531  0.726026196
  W   50.380054844  43.364338600  1.815065490
  W   52.142462097  38.008447552  2.904104784
  W   51.385975773  41.058743340  3.993144078
  W   52.330444254  35.500000000  5.082183372
  W   52.037030253  38.628974940  6.171222667
  W   51.167018734  41.648851744  7.260261961
  W   52.318674805  36.129310411  8.349301255
  W   51.908469877  39.245126174  9.438340549
  W   50.926149952  42.230360423  10.527379843
  W   52.283382918  36.757740674  11.616419137
  W   51.756960772  39.856039510  12.705458431
  W   50.663706305  42.802456084  13.794497725
  W   52.224617953  37.384411873  14.883537019
 Se   49.385195002  41.558048651  0.363013098
 Se   50.606850726  36.632101955  1.452052392
 Se   50.133014146  39.420904323  2.541091686
 Se   49.148967478  42.072996310  3.630130980
 Se   50.553955934  37.196173472  4.719170274
 Se   49.976174054  39.965308328  5.808209569
 Se   48.893650638  42.578751040  6.897248863
 Se   50.480006822  37.757872737  7.986288157
 Se   49.799087723  40.503467196  9.075327451
 Se   50.649210993  35.500000000  10.164366745
 Se   50.385106817  38.316414163  11.253406039
 Se   49.602002826  41.034628262  12.342445333
 Se   50.638617222  36.066447091  13.431484627
 Se   50.269388644  38.871016579  14.520523921
 Se   52.467104903  42.902672195  0.363013098
 Se   53.959915110  36.883379393  1.452052392
 Se   53.380907399  40.291174698  2.541091686
 Se   52.178445133  43.531915857  3.630130980
 Se   53.895279972  37.572650275  4.719170274
 Se   53.189255622  40.956412734  5.808209569
 Se   51.866459050  44.149926159  6.897248863
 Se   53.804917372  38.259022367  7.986288157
 Se   52.972863822  41.614019485  9.075327451
 Se   54.011677515  35.500000000  10.164366745
 Se   53.688953689  38.941535718  11.253406039
 Se   52.732034642  42.263075226  12.342445333
 Se   53.998732387  36.192173730  13.431484627
 Se   53.547551110  39.619235770  14.520523921
  W   46.947609346  47.837588664  0.726026196
  W   44.454336205  49.750744433  1.815065490
  W   48.658571181  45.993610353  2.904104784
  W   46.478286913  48.257000832  3.993144078
  W   50.075592281  43.915222127  5.082183372
  W   48.257000832  46.478286913  6.171222667
  W   45.993610353  48.658571181  7.260261961
  W   49.750744433  44.454336205  8.349301255
  W   47.837588664  46.947609346  9.438340549
  W   45.494257530  49.041738079  10.527379843
  W   49.405965631  44.980926834  11.616419137
  W   47.400921262  47.400921262  12.705458431
  W   44.980926834  49.405965631  13.794497725
  W   49.041738079  45.494257530  14.883537019
 Se   44.495907283  47.689021530  0.363013098
 Se   48.016865522  44.033854416  1.452052392
 Se   46.212109822  46.212109822  2.541091686
 Se   44.033854416  48.016865522  3.630130980
 Se   47.689021530  44.495907283  4.719170274
 Se   45.804080316  46.605157475  5.808209569
 Se   43.559866182  48.327203547  6.897248863
 Se   47.344130089  44.945378560  7.986288157
 Se   45.381639621  46.982673560  9.075327451
 Se   48.619601567  43.074605496  10.164366745
 Se   46.982673560  45.381639621  11.253406039
 Se   44.945378560  47.344130089  12.342445333
 Se   48.327203547  43.559866182  13.431484627
 Se   46.605157475  45.804080316  14.520523921
 Se   46.492607777  50.394454628  0.363013098
 Se   50.795065740  45.927999252  1.452052392
 Se   48.589732702  48.589732702  2.541091686
 Se   45.927999252  50.795065740  3.630130980
 Se   50.394454628  46.492607777  4.719170274
 Se   48.091138376  49.070019853  5.808209569
 Se   45.348806228  51.174285320  6.897248863
 Se   49.973012274  47.041842146  7.986288157
 Se   47.574934204  49.531328104  9.075327451
 Se   51.531582994  44.755838757  10.164366745
 Se   49.531328104  47.574934204  11.253406039
 Se   47.041842146  49.973012274  12.342445333
 Se   51.174285320  45.348806228  13.431484627
 Se   49.070019853  48.091138376  14.520523921
  W   39.245126174  51.908469877  0.726026196
  W   36.129310411  52.318674805  1.815065490
  W   41.648851744  51.167018734  2.904104784
  W   38.628974940  52.037030253  3.993144078
  W   43.915222127  50.075592281  5.082183372
  W   41.058743340  51.385975773  6.171222667
  W   38.008447552  52.142462097  7.260261961
  W   43.364338600  50.380054844  8.349301255
  W   40.460860531  51.582714838  9.438340549
  W   37.384411873  52.224617953  10.527379843
  W   42.802456084  50.663706305  11.616419137
  W   39.856039510  51.756960772  12.705458431
  W   36.757740674  52.283382918  13.794497725
  W   42.230360423  50.926149952  14.883537019
 Se   37.196173472  50.553955934  0.363013098
 Se   42.072996310  49.148967478  1.452052392
 Se   39.420904323  50.133014146  2.541091686
 Se   36.632101955  50.606850726  3.630130980
 Se   41.558048651  49.385195002  4.719170274
 Se   38.871016579  50.269388644  5.808209569
 Se   36.066447091  50.638617222  6.897248863
 Se   41.034628262  49.602002826  7.986288157
 Se   38.316414163  50.385106817  9.075327451
 Se   43.074605496  48.619601567  10.164366745
 Se   40.503467196  49.799087723  11.253406039
 Se   37.757872737  50.480006822  12.342445333
 Se   42.578751040  48.893650638  13.431484627
 Se   39.965308328  49.976174054  14.520523921
 Se   37.572650275  53.895279972  0.363013098
 Se   43.531915857  52.178445133  1.452052392
 Se   40.291174698  53.380907399  2.541091686
 Se   36.883379393  53.959915110  3.630130980
 Se   42.902672195  52.467104903  4.719170274
 Se   39.619235770  53.547551110  5.808209569
 Se   36.192173730  53.998732387  6.897248863
 Se   42.263075226  52.732034642  7.986288157
 Se   38.941535718  53.688953689  9.075327451
 Se   44.755838757  51.531582994  10.164366745
 Se   41.614019485  52.972863822  11.253406039
 Se   38.259022367  53.804917372  12.342445333
 Se   44.149926159  51.866459050  13.431484627
 Se   40.956412734  53.189255622  14.520523921
  W   30.539139469  51.582714838  0.726026196
  W   27.635661400  50.380054844  1.815065490
  W   32.991552448  52.142462097  2.904104784
  W   29.941256660  51.385975773  3.993144078
  W   35.500000000  52.330444254  5.082183372
  W   32.371025060  52.037030253  6.171222667
  W   29.351148256  51.167018734  7.260261961
  W   34.870689589  52.318674805  8.349301255
  W   31.754873826  51.908469877  9.438340549
  W   28.769639577  50.926149952  10.527379843
  W   34.242259326  52.283382918  11.616419137
  W   31.143960490  51.756960772  12.705458431
  W   28.197543916  50.663706305  13.794497725
  W   33.615588127  52.224617953  14.883537019
 Se   29.441951349  49.385195002  0.363013098
 Se   34.367898045  50.606850726  1.452052392
 Se   31.579095677  50.133014146  2.541091686
 Se   28.927003690  49.148967478  3.630130980
 Se   33.803826528  50.553955934  4.719170274
 Se   31.034691672  49.976174054  5.808209569
 Se   28.421248960  48.893650638  6.897248863
 Se   33.242127263  50.480006822  7.986288157
 Se   30.496532804  49.799087723  9.075327451
 Se   35.500000000  50.649210993  10.164366745
 Se   32.683585837  50.385106817  11.253406039
 Se   29.965371738  49.602002826  12.342445333
 Se   34.933552909  50.638617222  13.431484627
 Se   32.128983421  50.269388644  14.520523921
 Se   28.097327805  52.467104903  0.363013098
 Se   34.116620607  53.959915110  1.452052392
 Se   30.708825302  53.380907399  2.541091686
 Se   27.468084143  52.178445133  3.630130980
 Se   33.427349725  53.895279972  4.719170274
 Se   30.043587266  53.189255622  5.808209569
 Se   26.850073841  51.866459050  6.897248863
 Se   32.740977633  53.804917372  7.986288157
 Se   29.385980515  52.972863822  9.075327451
 Se   35.500000000  54.011677515  10.164366745
 Se   32.058464282  53.688953689  11.253406039
 Se   28.736924774  52.732034642  12.342445333
 Se   34.807826270  53.998732387  13.431484627
 Se   31.380764230  53.547551110  14.520523921
  W   23.162411336  46.947609346  0.726026196
  W   21.249255567  44.454336205  1.815065490
  W   25.006389647  48.658571181  2.904104784
  W   22.742999168  46.478286913  3.993144078
  W   27.084777873  50.075592281  5.082183372
  W   24.521713087  48.257000832  6.171222667
  W   22.341428819  45.993610353  7.260261961
  W   26.545663795  49.750744433  8.349301255
  W   24.052390654  47.837588664  9.438340549
  W   21.958261921  45.494257530  10.527379843
  W   26.019073166  49.405965631  11.616419137
  W   23.599078738  47.400921262  12.705458431
  W   21.594034369  44.980926834  13.794497725
  W   25.505742470  49.041738079  14.883537019
 Se   23.310978470  44.495907283  0.363013098
 Se   26.966145584  48.016865522  1.452052392
 Se   24.787890178  46.212109822  2.541091686
 Se   22.983134478  44.033854416  3.630130980
 Se   26.504092717  47.689021530  4.719170274
 Se   24.394842525  45.804080316  5.808209569
 Se   22.672796453  43.559866182  6.897248863
 Se   26.054621440  47.344130089  7.986288157
 Se   24.017326440  45.381639621  9.075327451
 Se   27.925394504  48.619601567  10.164366745
 Se   25.618360379  46.982673560  11.253406039
 Se   23.655869911  44.945378560  12.342445333
 Se   27.440133818  48.327203547  13.431484627
 Se   25.195919684  46.605157475  14.520523921
 Se   20.605545372  46.492607777  0.363013098
 Se   25.072000748  50.795065740  1.452052392
 Se   22.410267298  48.589732702  2.541091686
 Se   20.204934260  45.927999252  3.630130980
 Se   24.507392223  50.394454628  4.719170274
 Se   21.929980147  48.091138376  5.808209569
 Se   19.825714680  45.348806228  6.897248863
 Se   23.958157854  49.973012274  7.986288157
 Se   21.468671896  47.574934204  9.075327451
 Se   26.244161243  51.531582994  10.164366745
 Se   23.425065796  49.531328104  11.253406039
 Se   21.026987726  47.041842146  12.342445333
 Se   25.651193772  51.174285320  13.431484627
 Se   22.908861624  49.070019853  14.520523921
  W   19.091530123  39.245126174  0.726026196
  W   18.681325195  36.129310411  1.815065490
  W   19.832981266  41.648851744  2.904104784
  W   18.962969747  38.628974940  3.993144078
  W   20.924407719  43.915222127  5.082183372
  W   19.614024227  41.058743340  6.171222667
  W   18.857537903  38.008447552  7.260261961
  W   20.619945156  43.364338600  8.349301255
  W   19.417285162  40.460860531  9.438340549
  W   18.775382047  37.384411873  10.527379843
  W   20.336293695  42.802456084  11.616419137
  W   19.243039228  39.856039510  12.705458431
  W   18.716617082  36.757740674  13.794497725
  W   20.073850048  42.230360423  14.883537019
 Se   20.446044066  37.196173472  0.363013098
 Se   21.851032522  42.072996310  1.452052392
 Se   20.866985854  39.420904323  2.541091686
 Se   20.393149274  36.632101955  3.630130980
 Se   21.614804998  41.558048651  4.719170274
 Se   20.730611356  38.871016579  5.808209569
 Se   20.361382778  36.066447091  6.897248863
 Se   21.397997174  41.034628262  7.986288157
 Se   20.614893183  38.316414163  9.075327451
 Se   22.380398433  43.074605496  10.164366745
 Se   21.200912277  40.503467196  11.253406039
 Se   20.519993178  37.757872737  12.342445333
 Se   22.106349362  42.578751040  13.431484627
 Se   21.023825946  39.965308328  14.520523921
 Se   17.104720028  37.572650275  0.363013098
 Se   18.821554867  43.531915857  1.452052392
 Se   17.619092601  40.291174698  2.541091686
 Se   17.040084890  36.883379393  3.630130980
 Se   18.532895097  42.902672195  4.719170274
 Se   17.452448890  39.619235770  5.808209569
 Se   17.001267613  36.192173730  6.897248863
 Se   18.267965358  42.263075226  7.986288157
 Se   17.311046311  38.941535718  9.075327451
 Se   19.468417006  44.755838757  10.164366745
 Se   18.027136178  41.614019485  11.253406039
 Se   17.195082628  38.259022367  12.342445333
 Se   19.133540950  44.149926159  13.431484627
 Se   17.810744378  40.956412734  14.520523921
  W   19.417285162  30.539139469  0.726026196
  W   20.619945156  27.635661400  1.815065490
  W   18.857537903  32.991552448  2.904104784
  W   19.614024227  29.941256660  3.993144078
  W   18.669555746  35.500000000  5.082183372
  W   18.962969747  32.371025060  6.171222667
  W   19.832981266  29.351148256  7.260261961
  W   18.681325195  34.870689589  8.349301255
  W   19.091530123  31.754873826  9.438340549
  W   20.073850048  28.769639577  10.527379843
  W   18.716617082  34.242259326  11.616419137
  W   19.243039228  31.143960490  12.705458431
  W   20.336293695  28.197543916  13.794497725
  W   18.775382047  33.615588127  14.883537019
 Se   21.614804998  29.441951349  0.363013098
 Se   20.393149274  34.367898045  1.452052392
 Se   20.866985854  31.579095677  2.541091686
 Se   21.851032522  28.927003690  3.630130980
 Se   20.446044066  33.803826528  4.719170274
 Se   21.023825946  31.034691672  5.808209569
 Se   22.106349362  28.421248960  6.897248863
 Se   20.519993178  33.242127263  7.986288157
 Se   21.200912277  30.496532804  9.075327451
 Se   20.350789007  35.500000000  10.164366745
 Se   20.614893183  32.683585837  11.253406039
 Se   21.397997174  29.965371738  12.342445333
 Se   20.361382778  34.933552909  13.431484627
 Se   20.730611356  32.128983421  14.520523921
 Se   18.532895097  28.097327805  0.363013098
 Se   17.040084890  34.116620607  1.452052392
 Se   17.619092601  30.708825302  2.541091686
 Se   18.821554867  27.468084143  3.630130980
 Se   17.104720028  33.427349725  4.719170274
 Se   17.810744378  30.043587266  5.808209569
 Se   19.133540950  26.850073841  6.897248863
 Se   17.195082628  32.740977633  7.986288157
 Se   18.027136178  29.385980515  9.075327451
 Se   16.988322485  35.500000000  10.164366745
 Se   17.311046311  32.058464282  11.253406039
 Se   18.267965358  28.736924774  12.342445333
 Se   17.001267613  34.807826270  13.431484627
 Se   17.452448890  31.380764230  14.520523921
  W   24.052390654  23.162411336  0.726026196
  W   26.545663795  21.249255567  1.815065490
  W   22.341428819  25.006389647  2.904104784
  W   24.521713087  22.742999168  3.993144078
  W   20.924407719  27.084777873  5.082183372
  W   22.742999168  24.521713087  6.171222667
  W   25.006389647  22.341428819  7.260261961
  W   21.249255567  26.545663795  8.349301255
  W   23.162411336  24.052390654  9.438340549
  W   25.505742470  21.958261921  10.527379843
  W   21.594034369  26.019073166  11.616419137
  W   23.599078738  23.599078738  12.705458431
  W   26.019073166  21.594034369  13.794497725
  W   21.958261921  25.505742470  14.883537019
 Se   26.504092717  23.310978470  0.363013098
 Se   22.983134478  26.966145584  1.452052392
 Se   24.787890178  24.787890178  2.541091686
 Se   26.966145584  22.983134478  3.630130980
 Se   23.310978470  26.504092717  4.719170274
 Se   25.195919684  24.394842525  5.808209569
 Se   27.440133818  22.672796453  6.897248863
 Se   23.655869911  26.054621440  7.986288157
 Se   25.618360379  24.017326440  9.075327451
 Se   22.380398433  27.925394504  10.164366745
 Se   24.017326440  25.618360379  11.253406039
 Se   26.054621440  23.655869911  12.342445333
 Se   22.672796453  27.440133818  13.431484627
 Se   24.394842525  25.195919684  14.520523921
 Se   24.507392223  20.605545372  0.363013098
 Se   20.204934260  25.072000748  1.452052392
 Se   22.410267298  22.410267298  2.541091686
 Se   25.072000748  20.204934260  3.630130980
 Se   20.605545372  24.507392223  4.719170274
 Se   22.908861624  21.929980147  5.808209569
 Se   25.651193772  19.825714680  6.897248863
 Se   21.026987726  23.958157854  7.986288157
 Se   23.425065796  21.468671896  9.075327451
 Se   19.468417006  26.244161243  10.164366745
 Se   21.468671896  23.425065796  11.253406039
 Se   23.958157854  21.026987726  12.342445333
 Se   19.825714680  25.651193772  13.431484627
 Se   21.929980147  22.908861624  14.520523921
  W   31.754873826  19.091530123  0.726026196
  W   34.870689589  18.681325195  1.815065490
  W   29.351148256  19.832981266  2.904104784
  W   32.371025060  18.962969747  3.993144078
  W   27.084777873  20.924407719  5.082183372
  W   29.941256660  19.614024227  6.171222667
  W   32.991552448  18.857537903  7.260261961
  W   27.635661400  20.619945156  8.349301255
  W   30.539139469  19.417285162  9.438340549
  W   33.615588127  18.775382047  10.527379843
  W   28.197543916  20.336293695  11.616419137
  W   31.143960490  19.243039228  12.705458431
  W   34.242259326  18.716617082  13.794497725
  W   28.769639577  20.073850048  14.883537019
 Se   33.803826528  20.446044066  0.363013098
 Se   28.927003690  21.851032522  1.452052392
 Se   31.579095677  20.866985854  2.541091686
 Se   34.367898045  20.393149274  3.630130980
 Se   29.441951349  21.614804998  4.719170274
 Se   32.128983421  20.730611356  5.808209569
 Se   34.933552909  20.361382778  6.897248863
 Se   29.965371738  21.397997174  7.986288157
 Se   32.683585837  20.614893183  9.075327451
 Se   27.925394504  22.380398433  10.164366745
 Se   30.496532804  21.200912277  11.253406039
 Se   33.242127263  20.519993178  12.342445333
 Se   28.421248960  22.106349362  13.431484627
 Se   31.034691672  21.023825946  14.520523921
 Se   33.427349725  17.104720028  0.363013098
 Se   27.468084143  18.821554867  1.452052392
 Se   30.708825302  17.619092601  2.541091686
 Se   34.116620607  17.040084890  3.630130980
 Se   28.097327805  18.532895097  4.719170274
 Se   31.380764230  17.452448890  5.808209569
 Se   34.807826270  17.001267613  6.897248863
 Se   28.736924774  18.267965358  7.986288157
 Se   32.058464282  17.311046311  9.075327451
 Se   26.244161243  19.468417006  10.164366745
 Se   29.385980515  18.027136178  11.253406039
 Se   32.740977633  17.195082628  12.342445333
 Se   26.850073841  19.133540950  13.431484627
 Se   30.043587266  17.810744378  14.520523921
  W   40.460860531  19.417285162  0.726026196
  W   43.364338600  20.619945156  1.815065490
  W   38.008447552  18.857537903  2.904104784
  W   41.058743340  19.614024227  3.993144078
  W   35.500000000  18.669555746  5.082183372
  W   38.628974940  18.962969747  6.171222667
  W   41.648851744  19.832981266  7.260261961
  W   36.129310411  18.681325195  8.349301255
  W   39.245126174  19.091530123  9.438340549
  W   42.230360423  20.073850048  10.527379843
  W   36.757740674  18.716617082  11.616419137
  W   39.856039510  19.243039228  12.705458431
  W   42.802456084  20.336293695  13.794497725
  W   37.384411873  18.775382047  14.883537019
 Se   41.558048651  21.614804998  0.363013098
 Se   36.632101955  20.393149274  1.452052392
 Se   39.420904323  20.866985854  2.541091686
 Se   42.072996310  21.851032522  3.630130980
 Se   37.196173472  20.446044066  4.719170274
 Se   39.965308328  21.023825946  5.808209569
 Se   42.578751040  22.106349362  6.897248863
 Se   37.757872737  20.519993178  7.986288157
 Se   40.503467196  21.200912277  9.075327451
 Se   35.500000000  20.350789007  10.164366745
 Se   38.316414163  20.614893183  11.253406039
 Se   41.034628262  21.397997174  12.342445333
 Se   36.066447091  20.361382778  13.431484627
 Se   38.871016579  20.730611356  14.520523921
 Se   42.902672195  18.532895097  0.363013098
 Se   36.883379393  17.040084890  1.452052392
 Se   40.291174698  17.619092601  2.541091686
 Se   43.531915857  18.821554867  3.630130980
 Se   37.572650275  17.104720028  4.719170274
 Se   40.956412734  17.810744378  5.808209569
 Se   44.149926159  19.133540950  6.897248863
 Se   38.259022367  17.195082628  7.986288157
 Se   41.614019485  18.027136178  9.075327451
 Se   35.500000000  16.988322485  10.164366745
 Se   38.941535718  17.311046311  11.253406039
 Se   42.263075226  18.267965358  12.342445333
 Se   36.192173730  17.001267613  13.431484627
 Se   39.619235770  17.452448890  14.520523921
  W   47.837588664  24.052390654  0.726026196
  W   49.750744433  26.545663795  1.815065490
  W   45.993610353  22.341428819  2.904104784
  W   48.257000832  24.521713087  3.993144078
  W   43.915222127  20.924407719  5.082183372
  W   46.478286913  22.742999168  6.171222667
  W   48.658571181  25.006389647  7.260261961
  W   44.454336205  21.249255567  8.349301255
  W   46.947609346  23.162411336  9.438340549
  W   49.041738079  25.505742470  10.527379843
  W   44.980926834  21.594034369  11.616419137
  W   47.400921262  23.599078738  12.705458431
  W   49.405965631  26.019073166  13.794497725
  W   45.494257530  21.958261921  14.883537019
 Se   47.689021530  26.504092717  0.363013098
 Se   44.033854416  22.983134478  1.452052392
 Se   46.212109822  24.787890178  2.541091686
 Se   48.016865522  26.966145584  3.630130980
 Se   44.495907283  23.310978470  4.719170274
 Se   46.605157475  25.195919684  5.808209569
 Se   48.327203547  27.440133818  6.897248863
 Se   44.945378560  23.655869911  7.986288157
 Se   46.982673560  25.618360379  9.075327451
 Se   43.074605496  22.380398433  10.164366745
 Se   45.381639621  24.017326440  11.253406039
 Se   47.344130089  26.054621440  12.342445333
 Se   43.559866182  22.672796453  13.431484627
 Se   45.804080316  24.394842525  14.520523921
 Se   50.394454628  24.507392223  0.363013098
 Se   45.927999252  20.204934260  1.452052392
 Se   48.589732702  22.410267298  2.541091686
 Se   50.795065740  25.072000748  3.630130980
 Se   46.492607777  20.605545372  4.719170274
 Se   49.070019853  22.908861624  5.808209569
 Se   51.174285320  25.651193772  6.897248863
 Se   47.041842146  21.026987726  7.986288157
 Se   49.531328104  23.425065796  9.075327451
 Se   44.755838757  19.468417006  10.164366745
 Se   47.574934204  21.468671896  11.253406039
 Se   49.973012274  23.958157854  12.342445333
 Se   45.348806228  19.825714680  13.431484627
 Se   48.091138376  21.929980147  14.520523921
  W   51.908469877  31.754873826  0.726026196
  W   52.318674805  34.870689589  1.815065490
  W   51.167018734  29.351148256  2.904104784
  W   52.037030253  32.371025060  3.993144078
  W   50.075592281  27.084777873  5.082183372
  W   51.385975773  29.941256660  6.171222667
  W   52.142462097  32.991552448  7.260261961
  W   50.380054844  27.635661400  8.349301255
  W   51.582714838  30.539139469  9.438340549
  W   52.224617953  33.615588127  10.527379843
  W   50.663706305  28.197543916  11.616419137
  W   51.756960772  31.143960490  12.705458431
  W   52.283382918  34.242259326  13.794497725
  W   50.926149952  28.769639577  14.883537019
 Se   50.553955934  33.803826528  0.363013098
 Se   49.148967478  28.927003690  1.452052392
 Se   50.133014146  31.579095677  2.541091686
 Se   50.606850726  34.367898045  3.630130980
 Se   49.385195002  29.441951349  4.719170274
 Se   50.269388644  32.128983421  5.808209569
 Se   50.638617222  34.933552909  6.897248863
 Se   49.602002826  29.965371738  7.986288157
 Se   50.385106817  32.683585837  9.075327451
 Se   48.619601567  27.925394504  10.164366745
 Se   49.799087723  30.496532804  11.253406039
 Se   50.480006822  33.242127263  12.342445333
 Se   48.893650638  28.421248960  13.431484627
 Se   49.976174054  31.034691672  14.520523921
 Se   53.895279972  33.427349725  0.363013098
 Se   52.178445133  27.468084143  1.452052392
 Se   53.380907399  30.708825302  2.541091686
 Se   53.959915110  34.116620607  3.630130980
 Se   52.467104903  28.097327805  4.719170274
 Se   53.547551110  31.380764230  5.808209569
 Se   53.998732387  34.807826270  6.897248863
 Se   52.732034642  28.736924774  7.986288157
 Se   53.688953689  32.058464282  9.075327451
 Se   51.531582994  26.244161243  10.164366745
 Se   52.972863822  29.385980515  11.253406039
 Se   53.804917372  32.740977633  12.342445333
 Se   51.866459050  26.850073841  13.431484627
 Se   53.189255622  30.043587266  14.520523921
