&CONTROL
    pseudo_dir = "/home/shihab/.burai/.pseudopot"
/

&SYSTEM
    a     =  3.32707e+00
    c     =  1.50690e+01
    ibrav = 4
    nat   = 3
    ntyp  = 2
/

ATOMIC_SPECIES
W     183.84000  W.pbe-nsp-van.UPF
Se     78.96000  Se.pbe-n-rrkjus_psl.1.0.0.UPF

ATOMIC_POSITIONS {angstrom}
W       1.663535   0.960442   7.547882
Se     -0.000000   1.920884   9.229110
Se     -0.000000   1.920884   5.866654


