&CONTROL
  calculation = 'scf',
  outdir = '.',
  pseudo_dir = '.'
/
&SYSTEM
  ibrav = 0,
  nat   = 252,
  ntyp  = 2,
! c2x default
  ecutwfc = 10
/
&ELECTRONS
/

CELL_PARAMETERS angstrom
 36.0000000   0.0000000   0.0000000
  0.0000000  36.0000000   0.0000000
  0.0000000   0.0000000  15.2465501

ATOMIC_SPECIES
  W    1.0   W.UPF
  Se   1.0   Se.UPF

ATOMIC_POSITIONS angstrom
  W   24.965129616  22.748744965  0.726026196
  W   22.748744965  24.965129616  1.815065490
  W   26.055405600  20.484763556  2.904104784
  W   24.590779545  23.255971299  3.993144078
  W   26.429923446  18.000000000  5.082183372
  W   25.847194439  21.079796867  6.171222667
  W   24.179571161  23.733804109  7.260261961
  W   26.406351670  18.629968968  8.349301255
  W   25.595098584  21.657606705  9.438340549
  W   23.733804109  24.179571161  10.527379843
  W   26.335768166  19.256414894  11.616419137
  W   25.300527856  22.214961723  12.705458431
  W   23.255971299  24.590779545  13.794497725
  W   26.218567665  19.875834438  14.883537019
 Se   22.590275079  22.947139973  0.363013098
 Se   24.673312892  19.005840079  1.452052392
 Se   23.844537142  21.374345093  2.541091686
 Se   22.207739506  23.276338452  3.630130980
 Se   24.579486432  19.501724843  4.719170274
 Se   23.576029507  21.801672547  5.808209569
 Se   21.801672547  23.576029507  6.897248863
 Se   24.448864815  19.989211353  7.986288157
 Se   23.276338452  22.207739506  9.075327451
 Se   24.748690185  18.000000000  10.164366745
 Se   24.282178531  20.465573385  11.253406039
 Se   22.947139973  22.590275079  12.342445333
 Se   24.729819478  18.504330249  13.431484627
 Se   24.080359756  20.928146932  14.520523921
 Se   24.877333139  25.412002350  0.363013098
 Se   27.998223441  19.506989709  1.452052392
 Se   26.756518570  23.055578354  2.541091686
 Se   24.304203092  25.905220638  3.630130980
 Se   27.857648898  20.249944034  4.719170274
 Se   26.354229725  23.695817383  5.808209569
 Se   23.695817383  26.354229725  6.897248863
 Se   27.661946384  20.980315759  7.986288157
 Se   25.905220638  24.304203092  9.075327451
 Se   28.111156707  18.000000000  10.164366745
 Se   27.412210347  21.694020349  11.253406039
 Se   25.412002350  24.877333139  12.342445333
 Se   28.082883862  18.755607687  13.431484627
 Se   27.109837411  22.387066479  14.520523921
  W   17.370031032  26.406351670  0.726026196
  W   14.342393295  25.595098584  1.815065490
  W   19.875834438  26.218567665  2.904104784
  W   16.743585106  26.335768166  3.993144078
  W   22.214961723  25.300527856  5.082183372
  W   19.256414894  26.335768166  6.171222667
  W   16.124165562  26.218567665  7.260261961
  W   21.657606705  25.595098584  8.349301255
  W   18.629968968  26.406351670  9.438340549
  W   15.515236444  26.055405600  10.527379843
  W   21.079796867  25.847194439  11.616419137
  W   18.000000000  26.429923446  12.705458431
  W   14.920203133  25.847194439  13.794497725
  W   20.484763556  26.055405600  14.883537019
 Se   16.010788647  24.448864815  0.363013098
 Se   20.465573385  24.282178531  1.452052392
 Se   18.000000000  24.748690185  2.541091686
 Se   15.534426615  24.282178531  3.630130980
 Se   19.989211353  24.448864815  4.719170274
 Se   17.495669751  24.729819478  5.808209569
 Se   15.071853068  24.080359756  6.897248863
 Se   19.501724843  24.579486432  7.986288157
 Se   16.994159921  24.673312892  9.075327451
 Se   21.374345093  23.844537142  10.164366745
 Se   19.005840079  24.673312892  11.253406039
 Se   16.498275157  24.579486432  12.342445333
 Se   20.928146932  24.080359756  13.431484627
 Se   18.504330249  24.729819478  14.520523921
 Se   15.019684241  27.661946384  0.363013098
 Se   21.694020349  27.412210347  1.452052392
 Se   18.000000000  28.111156707  2.541091686
 Se   14.305979651  27.412210347  3.630130980
 Se   20.980315759  27.661946384  4.719170274
 Se   17.244392313  28.082883862  5.808209569
 Se   13.612933521  27.109837411  6.897248863
 Se   20.249944034  27.857648898  7.986288157
 Se   16.493010291  27.998223441  9.075327451
 Se   23.055578354  26.756518570  10.164366745
 Se   19.506989709  27.998223441  11.253406039
 Se   15.750055966  27.857648898  12.342445333
 Se   22.387066479  27.109837411  13.431484627
 Se   18.755607687  28.082883862  14.520523921
  W   10.404901416  21.657606705  0.726026196
  W   9.593648330  18.629968968  1.815065490
  W   11.820428839  23.733804109  2.904104784
  W   10.152805561  21.079796867  3.993144078
  W   13.785038277  25.300527856  5.082183372
  W   11.409220455  23.255971299  6.171222667
  W   9.944594400  20.484763556  7.260261961
  W   13.251255035  24.965129616  8.349301255
  W   11.034870384  22.748744965  9.438340549
  W   9.781432335  19.875834438  10.527379843
  W   12.744028701  24.590779545  11.616419137
  W   10.699472144  22.214961723  12.705458431
  W   9.664231834  19.256414894  13.794497725
  W   12.266195891  24.179571161  14.883537019
 Se   11.420513568  19.501724843  0.363013098
 Se   13.792260494  23.276338452  1.452052392
 Se   12.155462858  21.374345093  2.541091686
 Se   11.326687108  19.005840079  3.630130980
 Se   13.409724921  22.947139973  4.719170274
 Se   11.919640244  20.928146932  5.808209569
 Se   11.270180522  18.504330249  6.897248863
 Se   13.052860027  22.590275079  7.986288157
 Se   11.717821469  20.465573385  9.075327451
 Se   14.625654907  23.844537142  10.164366745
 Se   12.723661548  22.207739506  11.253406039
 Se   11.551135185  19.989211353  12.342445333
 Se   14.198327453  23.576029507  13.431484627
 Se   12.423970493  21.801672547  14.520523921
 Se   8.142351102  20.249944034  0.363013098
 Se   11.695796908  25.905220638  1.452052392
 Se   9.243481430  23.055578354  2.541091686
 Se   8.001776559  19.506989709  3.630130980
 Se   11.122666861  25.412002350  4.719170274
 Se   8.890162589  22.387066479  5.808209569
 Se   7.917116138  18.755607687  6.897248863
 Se   10.587997650  24.877333139  7.986288157
 Se   8.587789653  21.694020349  9.075327451
 Se   12.944421646  26.756518570  10.164366745
 Se   10.094779362  24.304203092  11.253406039
 Se   8.338053616  20.980315759  12.342445333
 Se   12.304182617  26.354229725  13.431484627
 Se   9.645770275  23.695817383  14.520523921
  W   11.034870384  13.251255035  0.726026196
  W   13.251255035  11.034870384  1.815065490
  W   9.944594400  15.515236444  2.904104784
  W   11.409220455  12.744028701  3.993144078
  W   9.570076554  18.000000000  5.082183372
  W   10.152805561  14.920203133  6.171222667
  W   11.820428839  12.266195891  7.260261961
  W   9.593648330  17.370031032  8.349301255
  W   10.404901416  14.342393295  9.438340549
  W   12.266195891  11.820428839  10.527379843
  W   9.664231834  16.743585106  11.616419137
  W   10.699472144  13.785038277  12.705458431
  W   12.744028701  11.409220455  13.794497725
  W   9.781432335  16.124165562  14.883537019
 Se   13.409724921  13.052860027  0.363013098
 Se   11.326687108  16.994159921  1.452052392
 Se   12.155462858  14.625654907  2.541091686
 Se   13.792260494  12.723661548  3.630130980
 Se   11.420513568  16.498275157  4.719170274
 Se   12.423970493  14.198327453  5.808209569
 Se   14.198327453  12.423970493  6.897248863
 Se   11.551135185  16.010788647  7.986288157
 Se   12.723661548  13.792260494  9.075327451
 Se   11.251309815  18.000000000  10.164366745
 Se   11.717821469  15.534426615  11.253406039
 Se   13.052860027  13.409724921  12.342445333
 Se   11.270180522  17.495669751  13.431484627
 Se   11.919640244  15.071853068  14.520523921
 Se   11.122666861  10.587997650  0.363013098
 Se   8.001776559  16.493010291  1.452052392
 Se   9.243481430  12.944421646  2.541091686
 Se   11.695796908  10.094779362  3.630130980
 Se   8.142351102  15.750055966  4.719170274
 Se   9.645770275  12.304182617  5.808209569
 Se   12.304182617  9.645770275  6.897248863
 Se   8.338053616  15.019684241  7.986288157
 Se   10.094779362  11.695796908  9.075327451
 Se   7.888843293  18.000000000  10.164366745
 Se   8.587789653  14.305979651  11.253406039
 Se   10.587997650  11.122666861  12.342445333
 Se   7.917116138  17.244392313  13.431484627
 Se   8.890162589  13.612933521  14.520523921
  W   18.629968968  9.593648330  0.726026196
  W   21.657606705  10.404901416  1.815065490
  W   16.124165562  9.781432335  2.904104784
  W   19.256414894  9.664231834  3.993144078
  W   13.785038277  10.699472144  5.082183372
  W   16.743585106  9.664231834  6.171222667
  W   19.875834438  9.781432335  7.260261961
  W   14.342393295  10.404901416  8.349301255
  W   17.370031032  9.593648330  9.438340549
  W   20.484763556  9.944594400  10.527379843
  W   14.920203133  10.152805561  11.616419137
  W   18.000000000  9.570076554  12.705458431
  W   21.079796867  10.152805561  13.794497725
  W   15.515236444  9.944594400  14.883537019
 Se   19.989211353  11.551135185  0.363013098
 Se   15.534426615  11.717821469  1.452052392
 Se   18.000000000  11.251309815  2.541091686
 Se   20.465573385  11.717821469  3.630130980
 Se   16.010788647  11.551135185  4.719170274
 Se   18.504330249  11.270180522  5.808209569
 Se   20.928146932  11.919640244  6.897248863
 Se   16.498275157  11.420513568  7.986288157
 Se   19.005840079  11.326687108  9.075327451
 Se   14.625654907  12.155462858  10.164366745
 Se   16.994159921  11.326687108  11.253406039
 Se   19.501724843  11.420513568  12.342445333
 Se   15.071853068  11.919640244  13.431484627
 Se   17.495669751  11.270180522  14.520523921
 Se   20.980315759  8.338053616  0.363013098
 Se   14.305979651  8.587789653  1.452052392
 Se   18.000000000  7.888843293  2.541091686
 Se   21.694020349  8.587789653  3.630130980
 Se   15.019684241  8.338053616  4.719170274
 Se   18.755607687  7.917116138  5.808209569
 Se   22.387066479  8.890162589  6.897248863
 Se   15.750055966  8.142351102  7.986288157
 Se   19.506989709  8.001776559  9.075327451
 Se   12.944421646  9.243481430  10.164366745
 Se   16.493010291  8.001776559  11.253406039
 Se   20.249944034  8.142351102  12.342445333
 Se   13.612933521  8.890162589  13.431484627
 Se   17.244392313  7.917116138  14.520523921
  W   25.595098584  14.342393295  0.726026196
  W   26.406351670  17.370031032  1.815065490
  W   24.179571161  12.266195891  2.904104784
  W   25.847194439  14.920203133  3.993144078
  W   22.214961723  10.699472144  5.082183372
  W   24.590779545  12.744028701  6.171222667
  W   26.055405600  15.515236444  7.260261961
  W   22.748744965  11.034870384  8.349301255
  W   24.965129616  13.251255035  9.438340549
  W   26.218567665  16.124165562  10.527379843
  W   23.255971299  11.409220455  11.616419137
  W   25.300527856  13.785038277  12.705458431
  W   26.335768166  16.743585106  13.794497725
  W   23.733804109  11.820428839  14.883537019
 Se   24.579486432  16.498275157  0.363013098
 Se   22.207739506  12.723661548  1.452052392
 Se   23.844537142  14.625654907  2.541091686
 Se   24.673312892  16.994159921  3.630130980
 Se   22.590275079  13.052860027  4.719170274
 Se   24.080359756  15.071853068  5.808209569
 Se   24.729819478  17.495669751  6.897248863
 Se   22.947139973  13.409724921  7.986288157
 Se   24.282178531  15.534426615  9.075327451
 Se   21.374345093  12.155462858  10.164366745
 Se   23.276338452  13.792260494  11.253406039
 Se   24.448864815  16.010788647  12.342445333
 Se   21.801672547  12.423970493  13.431484627
 Se   23.576029507  14.198327453  14.520523921
 Se   27.857648898  15.750055966  0.363013098
 Se   24.304203092  10.094779362  1.452052392
 Se   26.756518570  12.944421646  2.541091686
 Se   27.998223441  16.493010291  3.630130980
 Se   24.877333139  10.587997650  4.719170274
 Se   27.109837411  13.612933521  5.808209569
 Se   28.082883862  17.244392313  6.897248863
 Se   25.412002350  11.122666861  7.986288157
 Se   27.412210347  14.305979651  9.075327451
 Se   23.055578354  9.243481430  10.164366745
 Se   25.905220638  11.695796908  11.253406039
 Se   27.661946384  15.019684241  12.342445333
 Se   23.695817383  9.645770275  13.431484627
 Se   26.354229725  12.304182617  14.520523921
