&CONTROL
  calculation = 'scf',
  outdir = '.',
  pseudo_dir = '.'
/
&SYSTEM
  ibrav = 0,
  nat   = 72,
  ntyp  = 2,
! c2x default
  ecutwfc = 10
/
&ELECTRONS
/

CELL_PARAMETERS angstrom
 47.0000000   0.0000000   0.0000000
  0.0000000  47.0000000   0.0000000
  0.0000000   0.0000000   3.3270700

ATOMIC_SPECIES
  W    1.0   W.UPF
  Se   1.0   Se.UPF

ATOMIC_POSITIONS angstrom
  W   34.359575316  25.414836127  0.000000000
  W   33.493948203  28.160254582  1.663535000
 Se   32.282243673  26.696475287  0.000000000
 Se   32.810304658  24.314546112  1.663535000
 Se   35.441928651  27.846506569  0.000000000
 Se   36.159975980  24.607604379  1.663535000
  W   31.947250035  30.588084389  0.000000000
  W   29.824885737  32.532872958  1.663535000
 Se   29.507408479  30.659350638  0.000000000
 Se   31.155687295  28.860569954  1.663535000
 Se   31.668760298  33.235149432  0.000000000
 Se   33.910058620  30.789201519  1.663535000
  W   27.271490928  33.862086162  0.000000000
  W   24.461075245  34.485140319  1.663535000
 Se   25.122893035  32.703883766  0.000000000
 Se   27.449734704  31.970233406  1.663535000
 Se   25.706779219  36.015266867  0.000000000
 Se   28.870774460  35.017662999  1.663535000
  W   21.585163873  34.359575316  0.000000000
  W   18.839745418  33.493948203  1.663535000
 Se   20.303524713  32.282243673  0.000000000
 Se   22.685453888  32.810304658  1.663535000
 Se   19.153493431  35.441928651  0.000000000
 Se   22.392395621  36.159975980  1.663535000
  W   16.411915611  31.947250035  0.000000000
  W   14.467127042  29.824885737  1.663535000
 Se   16.340649362  29.507408479  0.000000000
 Se   18.139430046  31.155687295  1.663535000
 Se   13.764850568  31.668760298  0.000000000
 Se   16.210798481  33.910058620  1.663535000
  W   13.137913838  27.271490928  0.000000000
  W   12.514859681  24.461075245  1.663535000
 Se   14.296116234  25.122893035  0.000000000
 Se   15.029766594  27.449734704  1.663535000
 Se   10.984733133  25.706779219  0.000000000
 Se   11.982337001  28.870774460  1.663535000
  W   12.640424684  21.585163873  0.000000000
  W   13.506051797  18.839745418  1.663535000
 Se   14.717756327  20.303524713  0.000000000
 Se   14.189695342  22.685453888  1.663535000
 Se   11.558071349  19.153493431  0.000000000
 Se   10.840024020  22.392395621  1.663535000
  W   15.052749965  16.411915611  0.000000000
  W   17.175114263  14.467127042  1.663535000
 Se   17.492591521  16.340649362  0.000000000
 Se   15.844312705  18.139430046  1.663535000
 Se   15.331239702  13.764850568  0.000000000
 Se   13.089941380  16.210798481  1.663535000
  W   19.728509072  13.137913838  0.000000000
  W   22.538924755  12.514859681  1.663535000
 Se   21.877106965  14.296116234  0.000000000
 Se   19.550265296  15.029766594  1.663535000
 Se   21.293220781  10.984733133  0.000000000
 Se   18.129225540  11.982337001  1.663535000
  W   25.414836127  12.640424684  0.000000000
  W   28.160254582  13.506051797  1.663535000
 Se   26.696475287  14.717756327  0.000000000
 Se   24.314546112  14.189695342  1.663535000
 Se   27.846506569  11.558071349  0.000000000
 Se   24.607604379  10.840024020  1.663535000
  W   30.588084389  15.052749965  0.000000000
  W   32.532872958  17.175114263  1.663535000
 Se   30.659350638  17.492591521  0.000000000
 Se   28.860569954  15.844312705  1.663535000
 Se   33.235149432  15.331239702  0.000000000
 Se   30.789201519  13.089941380  1.663535000
  W   33.862086162  19.728509072  0.000000000
  W   34.485140319  22.538924755  1.663535000
 Se   32.703883766  21.877106965  0.000000000
 Se   31.970233406  19.550265296  1.663535000
 Se   36.015266867  21.293220781  0.000000000
 Se   35.017662999  18.129225540  1.663535000
