&CONTROL
  calculation = 'scf',
  outdir = '.',
  pseudo_dir = '.'
/
&SYSTEM
  ibrav = 0,
  nat   = 144,
  ntyp  = 2,
! c2x default
  ecutwfc = 10
/
&ELECTRONS
/

CELL_PARAMETERS angstrom
 54.0000000   0.0000000   0.0000000
  0.0000000  54.0000000   0.0000000
  0.0000000   0.0000000   5.7626543

ATOMIC_SPECIES
  W    1.0   W.UPF
  Se   1.0   Se.UPF

ATOMIC_POSITIONS angstrom
  W   39.622015388  28.661719850  0.960442380
  W   39.730930261  27.000000000  3.841769520
 Se   38.049697000  27.000000000  1.920884760
 Se   37.955165310  28.442274875  4.802211900
 Se   41.412163522  27.000000000  1.920884760
 Se   41.288865465  28.881164826  4.802211900
  W   38.761845898  31.871916089  0.960442380
  W   39.297134332  30.295007213  3.841769520
 Se   37.673187705  29.859872026  1.920884760
 Se   37.208588898  31.228535974  4.802211900
 Se   40.921080958  30.730142401  1.920884760
 Se   40.315102897  32.515296204  4.802211900
  W   37.100126047  34.750099298  0.960442380
  W   38.025309020  33.365465130  3.841769520
 Se   36.569318306  32.524848500  1.920884760
 Se   35.766314024  33.726629336  4.802211900
 Se   39.481299733  34.206081761  1.920884760
 Se   38.433938071  35.773569261  4.802211900
  W   34.750099298  37.100126047  0.960442380
  W   36.002127118  36.002127118  3.841769520
 Se   34.813315679  34.813315679  1.920884760
 Se   33.726629336  35.766314024  4.802211900
 Se   37.190938558  37.190938558  1.920884760
 Se   35.773569261  38.433938071  4.802211900
  W   31.871916089  38.761845898  0.960442380
  W   33.365465130  38.025309020  3.841769520
 Se   32.524848500  36.569318306  1.920884760
 Se   31.228535974  37.208588898  4.802211900
 Se   34.206081761  39.481299733  1.920884760
 Se   32.515296204  40.315102897  4.802211900
  W   28.661719850  39.622015388  0.960442380
  W   30.295007213  39.297134332  3.841769520
 Se   29.859872026  37.673187705  1.920884760
 Se   28.442274875  37.955165310  4.802211900
 Se   30.730142401  40.921080958  1.920884760
 Se   28.881164826  41.288865465  4.802211900
  W   25.338280150  39.622015388  0.960442380
  W   27.000000000  39.730930261  3.841769520
 Se   27.000000000  38.049697000  1.920884760
 Se   25.557725125  37.955165310  4.802211900
 Se   27.000000000  41.412163522  1.920884760
 Se   25.118835174  41.288865465  4.802211900
  W   22.128083911  38.761845898  0.960442380
  W   23.704992787  39.297134332  3.841769520
 Se   24.140127974  37.673187705  1.920884760
 Se   22.771464026  37.208588898  4.802211900
 Se   23.269857599  40.921080958  1.920884760
 Se   21.484703796  40.315102897  4.802211900
  W   19.249900702  37.100126047  0.960442380
  W   20.634534870  38.025309020  3.841769520
 Se   21.475151500  36.569318306  1.920884760
 Se   20.273370664  35.766314024  4.802211900
 Se   19.793918239  39.481299733  1.920884760
 Se   18.226430739  38.433938071  4.802211900
  W   16.899873953  34.750099298  0.960442380
  W   17.997872882  36.002127118  3.841769520
 Se   19.186684321  34.813315679  1.920884760
 Se   18.233685976  33.726629336  4.802211900
 Se   16.809061442  37.190938558  1.920884760
 Se   15.566061929  35.773569261  4.802211900
  W   15.238154102  31.871916089  0.960442380
  W   15.974690980  33.365465130  3.841769520
 Se   17.430681694  32.524848500  1.920884760
 Se   16.791411102  31.228535974  4.802211900
 Se   14.518700267  34.206081761  1.920884760
 Se   13.684897103  32.515296204  4.802211900
  W   14.377984612  28.661719850  0.960442380
  W   14.702865668  30.295007213  3.841769520
 Se   16.326812295  29.859872026  1.920884760
 Se   16.044834690  28.442274875  4.802211900
 Se   13.078919042  30.730142401  1.920884760
 Se   12.711134535  28.881164826  4.802211900
  W   14.377984612  25.338280150  0.960442380
  W   14.269069739  27.000000000  3.841769520
 Se   15.950303000  27.000000000  1.920884760
 Se   16.044834690  25.557725125  4.802211900
 Se   12.587836478  27.000000000  1.920884760
 Se   12.711134535  25.118835174  4.802211900
  W   15.238154102  22.128083911  0.960442380
  W   14.702865668  23.704992787  3.841769520
 Se   16.326812295  24.140127974  1.920884760
 Se   16.791411102  22.771464026  4.802211900
 Se   13.078919042  23.269857599  1.920884760
 Se   13.684897103  21.484703796  4.802211900
  W   16.899873953  19.249900702  0.960442380
  W   15.974690980  20.634534870  3.841769520
 Se   17.430681694  21.475151500  1.920884760
 Se   18.233685976  20.273370664  4.802211900
 Se   14.518700267  19.793918239  1.920884760
 Se   15.566061929  18.226430739  4.802211900
  W   19.249900702  16.899873953  0.960442380
  W   17.997872882  17.997872882  3.841769520
 Se   19.186684321  19.186684321  1.920884760
 Se   20.273370664  18.233685976  4.802211900
 Se   16.809061442  16.809061442  1.920884760
 Se   18.226430739  15.566061929  4.802211900
  W   22.128083911  15.238154102  0.960442380
  W   20.634534870  15.974690980  3.841769520
 Se   21.475151500  17.430681694  1.920884760
 Se   22.771464026  16.791411102  4.802211900
 Se   19.793918239  14.518700267  1.920884760
 Se   21.484703796  13.684897103  4.802211900
  W   25.338280150  14.377984612  0.960442380
  W   23.704992787  14.702865668  3.841769520
 Se   24.140127974  16.326812295  1.920884760
 Se   25.557725125  16.044834690  4.802211900
 Se   23.269857599  13.078919042  1.920884760
 Se   25.118835174  12.711134535  4.802211900
  W   28.661719850  14.377984612  0.960442380
  W   27.000000000  14.269069739  3.841769520
 Se   27.000000000  15.950303000  1.920884760
 Se   28.442274875  16.044834690  4.802211900
 Se   27.000000000  12.587836478  1.920884760
 Se   28.881164826  12.711134535  4.802211900
  W   31.871916089  15.238154102  0.960442380
  W   30.295007213  14.702865668  3.841769520
 Se   29.859872026  16.326812295  1.920884760
 Se   31.228535974  16.791411102  4.802211900
 Se   30.730142401  13.078919042  1.920884760
 Se   32.515296204  13.684897103  4.802211900
  W   34.750099298  16.899873953  0.960442380
  W   33.365465130  15.974690980  3.841769520
 Se   32.524848500  17.430681694  1.920884760
 Se   33.726629336  18.233685976  4.802211900
 Se   34.206081761  14.518700267  1.920884760
 Se   35.773569261  15.566061929  4.802211900
  W   37.100126047  19.249900702  0.960442380
  W   36.002127118  17.997872882  3.841769520
 Se   34.813315679  19.186684321  1.920884760
 Se   35.766314024  20.273370664  4.802211900
 Se   37.190938558  16.809061442  1.920884760
 Se   38.433938071  18.226430739  4.802211900
  W   38.761845898  22.128083911  0.960442380
  W   38.025309020  20.634534870  3.841769520
 Se   36.569318306  21.475151500  1.920884760
 Se   37.208588898  22.771464026  4.802211900
 Se   39.481299733  19.793918239  1.920884760
 Se   40.315102897  21.484703796  4.802211900
  W   39.622015388  25.338280150  0.960442380
  W   39.297134332  23.704992787  3.841769520
 Se   37.673187705  24.140127974  1.920884760
 Se   37.955165310  25.557725125  4.802211900
 Se   40.921080958  23.269857599  1.920884760
 Se   41.288865465  25.118835174  4.802211900
